DIMENSION: 9
EDGE_WEIGHT_TYPE: EXPLICIT
EDGE_WEIGHT_FORMAT: FULL_MATRIX
EDGE_WEIGHT_SECTION:
32767 32 26 24 32767 70 75 34 35 
32 32767 19 51 30 75 32767 61 4 
26 19 32767 94 83 66 87 65 32767 
24 51 94 32767 52 94 32767 32767 98 
32767 30 83 52 32767 18 78 97 2 
70 75 66 94 18 32767 32767 3 32767 
75 32767 87 32767 78 32767 32767 96 69 
34 61 65 32767 97 3 96 32767 30 
35 4 32767 98 2 32767 69 30 32767 
EOF